language ESSENCE' 1.0

letting fixed be 
[
    [0,0,0,0,0,0,0,0,0],
    [0,7,0,0,3,0,9,2,0],
    [0,1,9,0,2,5,6,3,0],
    [0,0,4,0,0,0,2,1,0],
    [0,0,0,0,0,0,0,0,0],
    [0,5,7,0,9,0,4,6,0],
    [0,9,5,1,4,0,3,7,0],
    [7,0,0,0,0,0,0,4,0],
    [0,4,2,3,6,7,5,9,0]
]